NAME: I15165-n34-k5
COMMENT : (Fake et al, No of trucks: 5, Optimal value: )
TYPE : CVRP
DIMENSION : 34
EDGE_WEIGHT_TYPE : EUC_2D
CAPACITY : 27
NODE_COORD_SECTION
1 65 662
2 657 541
3 139 96
4 539 611
5 962 495
6 896 908
7 700 486
8 674 181
9 753 695
10 90 795
11 173 97
12 739 555
13 677 703
14 489 865
15 790 534
16 791 84
17 67 568
18 787 681
19 854 662
20 390 40
21 495 248
22 574 663
23 498 792
24 721 876
25 534 730
26 297 342
27 18 674
28 31 550
29 915 558
30 688 506
31 247 853
32 274 415
33 873 885
34 966 204
DEMAND_SECTION
1 0
2 5
3 4
4 3
5 2
6 2
7 2
8 3
9 4
10 5
11 5
12 4
13 2
14 1
15 5
16 3
17 5
18 3
19 5
20 5
21 3
22 3
23 5
24 4
25 2
26 5
27 3
28 4
29 2
30 1
31 4
32 4
33 4
34 5
DEPOT_SECTION
 1
 -1
 EOF 